c Random generated cnf formula, satisfiable: true
p cnf 10 50
-10 9 3 0
9 1 -3 0
-9 2 8 0
-8 -7 1 0
1 -5 2 0
1 -6 8 0
3 -2 -5 0
-1 3 -2 0
-10 8 5 0
2 -3 -5 0
10 4 -5 0
7 4 9 0
-9 -4 -10 0
-8 2 -4 0
-3 -10 8 0
-9 8 -5 0
-5 8 -4 0
9 -6 -2 0
8 -3 6 0
-7 -3 8 0
10 -1 -4 0
-4 8 2 0
1 3 -4 0
10 -5 7 0
-2 5 -9 0
-8 3 4 0
1 6 -10 0
6 -5 -1 0
3 -2 -1 0
-5 1 3 0
10 6 -7 0
-7 4 5 0
-10 6 -5 0
-2 -6 9 0
-3 -2 9 0
10 6 4 0
5 -7 9 0
-10 -3 1 0
-9 -6 5 0
4 6 10 0
-4 -9 8 0
2 7 -9 0
-3 8 -5 0
-8 -3 -4 0
8 3 -2 0
-5 -7 -3 0
-9 -8 1 0
-2 -1 5 0
10 8 -7 0
-1 10 -6 0
